(set-logic QF_BV)
(declare-fun _substvar_273_ () (_ BitVec 8))
(declare-fun _substvar_275_ () (_ BitVec 16))
(declare-fun _substvar_327_ () (_ BitVec 16))
(declare-fun _substvar_314_ () (_ BitVec 32))
(declare-fun _substvar_122_ () (_ BitVec 8))
(declare-fun _substvar_349_ () (_ BitVec 8))
(assert (let ( (?v_10 ((_ zero_extend 24) _substvar_122_)) (?v_3 ((_ zero_extend 24) _substvar_273_))) (let ((?v_2 (bvadd (bvadd (_ bv0 32) (_ bv4269308 32)) ((_ zero_extend 16) _substvar_275_)))) (let ((?v_4 (bvadd ?v_2 (_ bv6 32)))) (let ((?v_6 (bvadd (bvadd ?v_4 (bvadd ?v_3 (_ bv1 32))) (_ bv2 32)))) (let ((?v_5 (bvadd ?v_6 ((_ zero_extend 16) _substvar_327_)))) (let ((?v_8 (bvadd ?v_5 (_ bv6 32)))) (let ((?v_9 (bvadd ?v_8 (bvadd _substvar_314_ (_ bv1 32))))) (let ((?v_15 (bvadd ?v_9 (_ bv2 32)))) (let ((?v_14 (bvadd ?v_15 ?v_10))) (let ((?v_16 (bvadd (bvadd ?v_14 (_ bv1 32)) (_ bv0 32)))) (and true (= _substvar_275_ (bvor (_ bv0 16) ((_ zero_extend 8) _substvar_349_))) true true (bvsle (_ bv1040 32) (bvsub ?v_16 (_ bv4269119 32))) true true true (not (= ?v_3 (_ bv1 32))) true true true true (= _substvar_314_ (_ bv1 32)) true true true true true true true (bvule ?v_15 (_ bv4270134 32)) true (bvule (bvadd ?v_16 (_ bv2 32)) (_ bv4270134 32))))))))))))))
(check-sat)
(exit)
